p tw 237 254
1 2
2 113
3 14
4 5
5 6
6 7
7 8
8 9
9 10
10 11
11 12
12 13
13 15
14 25
15 21
16 17
17 18
18 19
19 20
20 21
21 22
22 23
23 24
24 26
25 36
26 27
26 44
27 28
28 29
29 30
30 31
30 44
31 32
32 33
33 34
34 35
35 37
36 47
37 38
38 39
39 40
40 41
41 42
42 43
43 44
44 45
45 153
46 48
47 58
48 49
49 50
50 51
51 52
51 119
52 53
53 54
54 55
54 119
55 56
56 57
57 59
57 60
58 69
59 60
60 61
61 62
62 63
63 64
64 65
65 66
66 67
67 68
68 70
69 80
70 71
71 72
72 73
73 74
74 75
75 76
76 77
77 78
77 103
78 79
79 81
80 91
81 82
82 83
83 84
84 85
85 86
86 87
87 88
88 89
88 103
89 90
90 92
91 102
92 93
93 94
94 95
95 96
96 97
97 98
98 99
99 100
100 101
101 151
102 114
103 104
104 105
105 106
106 107
107 108
108 109
109 110
110 111
111 112
112 115
113 161
114 125
114 158
115 116
116 117
117 118
118 151
119 120
120 121
121 122
122 123
123 124
123 151
124 126
125 136
126 127
127 128
128 129
129 130
130 131
131 132
132 133
133 134
134 135
135 137
136 147
137 138
138 151
139 140
140 141
141 142
142 143
143 144
143 151
144 145
145 146
146 148
147 155
148 149
149 150
150 151
151 152
152 153
153 154
155 156
156 157
157 158
158 159
159 160
160 162
161 172
162 163
162 139
163 164
164 165
165 166
166 167
167 168
168 169
169 170
170 171
171 173
172 183
173 174
174 175
175 176
176 177
177 178
178 179
179 180
180 181
181 182
182 184
182 185
183 194
184 185
185 186
186 187
187 188
188 189
189 190
190 191
191 192
192 193
193 195
193 224
194 205
195 196
196 197
197 198
198 199
199 200
200 201
201 202
201 224
202 203
203 204
204 206
205 216
206 207
207 208
208 209
209 210
210 211
210 224
211 212
212 213
213 214
214 215
215 217
216 227
217 218
218 219
219 220
220 221
221 222
222 223
223 153
224 225
225 226
226 228
227 3
228 229
229 230
229 189
230 231
231 232
232 233
232 46
233 234
234 235
235 236
236 237
237 4
237 16
